Maximize
F - f1 - f2

Subject to
F - 8y16 - 4y108 - 0y124 - 0y125 - 6y137 - 2y166 - 2y167 - 6y64 - 8y43 - 6y10 - 2y77 - 4y53 - 2y118 - 8y48 - 2y32 - 8y12 - 6y55 - 8y50 - 2y156 - 2y130 - 6y90 = 0
f1 - 0.006456s16 - 0.006456s108 - 0.006456s124 - 0.006456s125 - 0.006456s137 - 0.006456s166 - 0.006456s167 - 0.006456s64 - 0.006456s43 - 0.006456s10 - 0.006456s77 - 0.006456s53 - 0.006456s118 - 0.006456s48 - 0.006456s32 - 0.006456s12 - 0.006456s55 - 0.006456s50 - 0.006456s156 - 0.006456s130 - 0.006456s90  = 0
f2 - 2.90y16 - 3.45y108 - 2.40y124 - 2.52y125 - 2.12y137 - 3.75y166 - 2.48y167 - 2.13y64 - 1.77y43 - 2.63y10 - 1.35y77 - 1.58y53 - 2.09y118 - 2.46y48 - 0.69y32 - 0.64y12 - 0.60y55 - 1.99y50 - 0.63y156 - 1.52y130 - 0.42y90 = 0

x88x124x1 + x88x64x1 + x88x43x1 + x88x118x1 + x88x48x1 + x88x55x1 + x88x50x1 + x88x156x1 + x88x130x1 
<= 1
x85x108x1 + x85x124x1 + x85x64x1 + x85x43x1 + x85x118x1 + x85x48x1 + x85x55x1 + x85x50x1 + x85x156x1 + x85x130x1 
<= 1
x142x108x1 + x142x124x1 + x142x64x1 + x142x43x1 + x142x118x1 + x142x48x1 + x142x55x1 + x142x50x1 + x142x156x1 + x142x130x1 
<= 1
x124x43x1 + x124x118x1 + x124x48x1 + x124x55x1 + x124x50x1 + x124x156x1 + x124x130x1 
<= 1
x22x124x1 + x22x64x1 + x22x43x1 + x22x118x1 + x22x48x1 + x22x55x1 + x22x50x1 + x22x156x1 + x22x130x1 
<= 2

x88x124x2 + x88x137x2 + x88x167x2 + x88x10x2 + x88x53x2 + x88x156x2 
<= 1
x5x10x2 + x5x53x2 + x5x156x2 
<= 1
x76x124x2 + x76x137x2 + x76x167x2 + x76x10x2 + x76x53x2 + x76x156x2 
<= 1
x150x137x2 + x150x10x2 + x150x53x2 + x150x156x2 
<= 2
x124x10x2 + x124x53x2 + x124x156x2 
<= 1
x5x10x3 + x5x77x3 + x5x32x3 + x5x12x3 + x5x55x3 + x5x50x3 + x5x130x3 + x5x90x3 
<= 1
x85x16x3 + x85x108x3 + x85x125x3 + x85x137x3 + x85x167x3 + x85x64x3 + x85x10x3 + x85x77x3 + x85x32x3 + x85x12x3 + x85x55x3 + x85x50x3 + x85x130x3 + x85x90x3 
<= 1
x142x16x3 + x142x108x3 + x142x125x3 + x142x137x3 + x142x167x3 + x142x64x3 + x142x10x3 + x142x77x3 + x142x32x3 + x142x12x3 + x142x55x3 + x142x50x3 + x142x130x3 + x142x90x3 
<= 1
x76x16x3 + x76x125x3 + x76x137x3 + x76x167x3 + x76x64x3 + x76x10x3 + x76x77x3 + x76x32x3 + x76x12x3 + x76x55x3 + x76x50x3 + x76x130x3 + x76x90x3 
<= 1
x125x125x3 + x125x137x3 + x125x167x3 + x125x64x3 + x125x10x3 + x125x77x3 + x125x32x3 + x125x12x3 + x125x55x3 + x125x50x3 + x125x130x3 + x125x90x3 
<= 2


x85x16x3 + x142x16x3 + x76x16x3 
- x16x0x3
- x16x10x3 - x16x77x3 - x16x32x3 - x16x12x3 - x16x55x3 - x16x50x3 - x16x130x3 - x16x90x3 
= 0

x85x108x1 + x142x108x1 
- x108x0x1
- x108x43x1 - x108x118x1 - x108x48x1 - x108x55x1 - x108x50x1 - x108x156x1 - x108x130x1 
= 0

x85x108x3 + x142x108x3 
- x108x0x3
- x108x10x3 - x108x77x3 - x108x32x3 - x108x12x3 - x108x55x3 - x108x50x3 - x108x130x3 - x108x90x3 
= 0

x88x124x1 + x85x124x1 + x142x124x1 + x22x124x1 
- x124x0x1
- x124x43x1 - x124x118x1 - x124x48x1 - x124x55x1 - x124x50x1 - x124x156x1 - x124x130x1 
= 0
x88x124x2 + x76x124x2 
- x124x0x2
- x124x10x2 - x124x53x2 - x124x156x2 
= 0




x85x125x3 + x142x125x3 + x76x125x3 + x125x125x3 
- x125x0x3
- x125x10x3 - x125x77x3 - x125x32x3 - x125x12x3 - x125x55x3 - x125x50x3 - x125x130x3 - x125x90x3 
= 0


x88x137x2 + x76x137x2 + x150x137x2 
- x137x0x2
- x137x10x2 - x137x53x2 - x137x156x2 
= 0
x85x137x3 + x142x137x3 + x76x137x3 + x125x137x3 
- x137x0x3
- x137x10x3 - x137x77x3 - x137x32x3 - x137x12x3 - x137x55x3 - x137x50x3 - x137x130x3 - x137x90x3 
= 0



- x166x10x2 - x166x53x2 - x166x156x2 
= 0

- x166x10x3 - x166x77x3 - x166x32x3 - x166x12x3 - x166x55x3 - x166x50x3 - x166x130x3 - x166x90x3 
= 0


x88x167x2 + x76x167x2 
- x167x0x2
- x167x10x2 - x167x53x2 - x167x156x2 
= 0
x85x167x3 + x142x167x3 + x76x167x3 + x125x167x3 
- x167x0x3
- x167x10x3 - x167x77x3 - x167x32x3 - x167x12x3 - x167x55x3 - x167x50x3 - x167x130x3 - x167x90x3 
= 0

x88x64x1 + x85x64x1 + x142x64x1 + x22x64x1 
- x64x0x1
- x64x43x1 - x64x118x1 - x64x48x1 - x64x55x1 - x64x50x1 - x64x156x1 - x64x130x1 
= 0

x85x64x3 + x142x64x3 + x76x64x3 + x125x64x3 
- x64x0x3
- x64x10x3 - x64x77x3 - x64x32x3 - x64x12x3 - x64x55x3 - x64x50x3 - x64x130x3 - x64x90x3 
= 0

x88x43x1 + x85x43x1 + x142x43x1 + x124x43x1 + x22x43x1 + x108x43x1 + x124x43x1 + x64x43x1 
- x43x0x1
- x43x118x1 - x43x48x1 - x43x55x1 - x43x50x1 - x43x156x1 - x43x130x1 
= 0




x88x10x2 + x5x10x2 + x76x10x2 + x150x10x2 + x124x10x2 + x124x10x2 + x137x10x2 + x166x10x2 + x167x10x2 
- x10x0x2
- x10x53x2 - x10x156x2 
= 0
x5x10x3 + x85x10x3 + x142x10x3 + x76x10x3 + x125x10x3 + x16x10x3 + x108x10x3 + x125x10x3 + x137x10x3 + x166x10x3 + x167x10x3 + x64x10x3 
- x10x0x3
- x10x32x3 - x10x12x3 - x10x55x3 - x10x50x3 - x10x130x3 - x10x90x3 
= 0



x5x77x3 + x85x77x3 + x142x77x3 + x76x77x3 + x125x77x3 + x16x77x3 + x108x77x3 + x125x77x3 + x137x77x3 + x166x77x3 + x167x77x3 + x64x77x3 
- x77x0x3
- x77x32x3 - x77x12x3 - x77x55x3 - x77x50x3 - x77x130x3 - x77x90x3 
= 0


x88x53x2 + x5x53x2 + x76x53x2 + x150x53x2 + x124x53x2 + x124x53x2 + x137x53x2 + x166x53x2 + x167x53x2 + x10x53x2 
- x53x0x2
- x53x156x2 
= 0


x88x118x1 + x85x118x1 + x142x118x1 + x124x118x1 + x22x118x1 + x108x118x1 + x124x118x1 + x64x118x1 + x43x118x1 
- x118x0x1
- x118x48x1 - x118x50x1 - x118x156x1 - x118x130x1 
= 0



x88x48x1 + x85x48x1 + x142x48x1 + x124x48x1 + x22x48x1 + x108x48x1 + x124x48x1 + x64x48x1 + x43x48x1 + x118x48x1 
- x48x0x1
- x48x50x1 - x48x130x1 
= 0





x5x32x3 + x85x32x3 + x142x32x3 + x76x32x3 + x125x32x3 + x16x32x3 + x108x32x3 + x125x32x3 + x137x32x3 + x166x32x3 + x167x32x3 + x64x32x3 + x10x32x3 + x77x32x3 
- x32x0x3
- x32x90x3 
= 0



x5x12x3 + x85x12x3 + x142x12x3 + x76x12x3 + x125x12x3 + x16x12x3 + x108x12x3 + x125x12x3 + x137x12x3 + x166x12x3 + x167x12x3 + x64x12x3 + x10x12x3 + x77x12x3 
- x12x0x3
- x12x90x3 
= 0

x88x55x1 + x85x55x1 + x142x55x1 + x124x55x1 + x22x55x1 + x108x55x1 + x124x55x1 + x64x55x1 + x43x55x1 
- x55x0x1
- x55x156x1 
= 0

x5x55x3 + x85x55x3 + x142x55x3 + x76x55x3 + x125x55x3 + x16x55x3 + x108x55x3 + x125x55x3 + x137x55x3 + x166x55x3 + x167x55x3 + x64x55x3 + x10x55x3 + x77x55x3 
- x55x0x3
- x55x90x3 
= 0

x88x50x1 + x85x50x1 + x142x50x1 + x124x50x1 + x22x50x1 + x108x50x1 + x124x50x1 + x64x50x1 + x43x50x1 + x118x50x1 + x48x50x1 
- x50x0x1

= 0

x5x50x3 + x85x50x3 + x142x50x3 + x76x50x3 + x125x50x3 + x16x50x3 + x108x50x3 + x125x50x3 + x137x50x3 + x166x50x3 + x167x50x3 + x64x50x3 + x10x50x3 + x77x50x3 
- x50x0x3

= 0

x88x156x1 + x85x156x1 + x142x156x1 + x124x156x1 + x22x156x1 + x108x156x1 + x124x156x1 + x64x156x1 + x43x156x1 + x118x156x1 + x55x156x1 
- x156x0x1

= 0
x88x156x2 + x5x156x2 + x76x156x2 + x150x156x2 + x124x156x2 + x124x156x2 + x137x156x2 + x166x156x2 + x167x156x2 + x10x156x2 + x53x156x2 
- x156x0x2

= 0


x88x130x1 + x85x130x1 + x142x130x1 + x124x130x1 + x22x130x1 + x108x130x1 + x124x130x1 + x64x130x1 + x43x130x1 + x118x130x1 + x48x130x1 
- x130x0x1

= 0

x5x130x3 + x85x130x3 + x142x130x3 + x76x130x3 + x125x130x3 + x16x130x3 + x108x130x3 + x125x130x3 + x137x130x3 + x166x130x3 + x167x130x3 + x64x130x3 + x10x130x3 + x77x130x3 
- x130x0x3

= 0



x5x90x3 + x85x90x3 + x142x90x3 + x76x90x3 + x125x90x3 + x16x90x3 + x108x90x3 + x125x90x3 + x137x90x3 + x166x90x3 + x167x90x3 + x64x90x3 + x10x90x3 + x77x90x3 + x32x90x3 + x12x90x3 + x55x90x3 
- x90x0x3

= 0

2y16 - x85x16x3 - x142x16x3 - x76x16x3 = 0
1y108 - x85x108x1 - x142x108x1 = 0
1y108 - x85x108x3 - x142x108x3 = 0
1y124 - x88x124x1 - x85x124x1 - x142x124x1 - x22x124x1 = 0
1y124 - x88x124x2 - x76x124x2 = 0
2y125 - x85x125x3 - x142x125x3 - x76x125x3 - x125x125x3 = 0
1y137 - x88x137x2 - x76x137x2 - x150x137x2 = 0
1y137 - x85x137x3 - x142x137x3 - x76x137x3 - x125x137x3 = 0
1y166 = 0
1y166 = 0
1y167 - x88x167x2 - x76x167x2 = 0
1y167 - x85x167x3 - x142x167x3 - x76x167x3 - x125x167x3 = 0
1y64 - x88x64x1 - x85x64x1 - x142x64x1 - x22x64x1 = 0
1y64 - x85x64x3 - x142x64x3 - x76x64x3 - x125x64x3 = 0
2y43 - x88x43x1 - x85x43x1 - x142x43x1 - x124x43x1 - x22x43x1 - x108x43x1 - x124x43x1 - x64x43x1 = 0
1y10 - x88x10x2 - x5x10x2 - x76x10x2 - x150x10x2 - x124x10x2 - x124x10x2 - x137x10x2 - x166x10x2 - x167x10x2 = 0
1y10 - x5x10x3 - x85x10x3 - x142x10x3 - x76x10x3 - x125x10x3 - x16x10x3 - x108x10x3 - x125x10x3 - x137x10x3 - x166x10x3 - x167x10x3 - x64x10x3 = 0
2y77 - x5x77x3 - x85x77x3 - x142x77x3 - x76x77x3 - x125x77x3 - x16x77x3 - x108x77x3 - x125x77x3 - x137x77x3 - x166x77x3 - x167x77x3 - x64x77x3 = 0
2y53 - x88x53x2 - x5x53x2 - x76x53x2 - x150x53x2 - x124x53x2 - x124x53x2 - x137x53x2 - x166x53x2 - x167x53x2 - x10x53x2 = 0
2y118 - x88x118x1 - x85x118x1 - x142x118x1 - x124x118x1 - x22x118x1 - x108x118x1 - x124x118x1 - x64x118x1 - x43x118x1 = 0
2y48 - x88x48x1 - x85x48x1 - x142x48x1 - x124x48x1 - x22x48x1 - x108x48x1 - x124x48x1 - x64x48x1 - x43x48x1 - x118x48x1 = 0
2y32 - x5x32x3 - x85x32x3 - x142x32x3 - x76x32x3 - x125x32x3 - x16x32x3 - x108x32x3 - x125x32x3 - x137x32x3 - x166x32x3 - x167x32x3 - x64x32x3 - x10x32x3 - x77x32x3 = 0
2y12 - x5x12x3 - x85x12x3 - x142x12x3 - x76x12x3 - x125x12x3 - x16x12x3 - x108x12x3 - x125x12x3 - x137x12x3 - x166x12x3 - x167x12x3 - x64x12x3 - x10x12x3 - x77x12x3 = 0
1y55 - x88x55x1 - x85x55x1 - x142x55x1 - x124x55x1 - x22x55x1 - x108x55x1 - x124x55x1 - x64x55x1 - x43x55x1 = 0
1y55 - x5x55x3 - x85x55x3 - x142x55x3 - x76x55x3 - x125x55x3 - x16x55x3 - x108x55x3 - x125x55x3 - x137x55x3 - x166x55x3 - x167x55x3 - x64x55x3 - x10x55x3 - x77x55x3 = 0
1y50 - x88x50x1 - x85x50x1 - x142x50x1 - x124x50x1 - x22x50x1 - x108x50x1 - x124x50x1 - x64x50x1 - x43x50x1 - x118x50x1 - x48x50x1 = 0
1y50 - x5x50x3 - x85x50x3 - x142x50x3 - x76x50x3 - x125x50x3 - x16x50x3 - x108x50x3 - x125x50x3 - x137x50x3 - x166x50x3 - x167x50x3 - x64x50x3 - x10x50x3 - x77x50x3 = 0
1y156 - x88x156x1 - x85x156x1 - x142x156x1 - x124x156x1 - x22x156x1 - x108x156x1 - x124x156x1 - x64x156x1 - x43x156x1 - x118x156x1 - x55x156x1 = 0
1y156 - x88x156x2 - x5x156x2 - x76x156x2 - x150x156x2 - x124x156x2 - x124x156x2 - x137x156x2 - x166x156x2 - x167x156x2 - x10x156x2 - x53x156x2 = 0
1y130 - x88x130x1 - x85x130x1 - x142x130x1 - x124x130x1 - x22x130x1 - x108x130x1 - x124x130x1 - x64x130x1 - x43x130x1 - x118x130x1 - x48x130x1 = 0
1y130 - x5x130x3 - x85x130x3 - x142x130x3 - x76x130x3 - x125x130x3 - x16x130x3 - x108x130x3 - x125x130x3 - x137x130x3 - x166x130x3 - x167x130x3 - x64x130x3 - x10x130x3 - x77x130x3 = 0
2y90 - x5x90x3 - x85x90x3 - x142x90x3 - x76x90x3 - x125x90x3 - x16x90x3 - x108x90x3 - x125x90x3 - x137x90x3 - x166x90x3 - x167x90x3 - x64x90x3 - x10x90x3 - x77x90x3 - x32x90x3 - x12x90x3 - x55x90x3 = 0

s88 - s124 + 6.726234z88z124z1 <= 5.16
s88 - s124 + 6.726234z88z124z2 <= 5.16
s88 - s137 + 6.744351z88z137z2 <= 5.16
s88 - s167 + 6.712962z88z167z2 <= 5.16
s88 - s64 + 6.728835z88z64z1 <= 5.16
s88 - s43 + 6.783736z88z43z1 <= 5.16
s88 - s10 + 6.762403z88z10z2 <= 5.16
s88 - s53 + 6.937752z88z53z2 <= 5.16
s88 - s118 + 6.876504z88z118z1 <= 5.16
s88 - s48 + 6.838385z88z48z1 <= 5.16
s88 - s55 + 7.043523z88z55z1 <= 5.16
s88 - s50 + 6.928742z88z50z1 <= 5.16
s88 - s156 + 7.090966z88z156z1 <= 5.16
s88 - s156 + 7.090966z88z156z2 <= 5.16
s88 - s130 + 6.995619z88z130z1 <= 5.16
s5 - s10 + 7.035192z5z10z2 <= 5.31
s5 - s10 + 7.035192z5z10z3 <= 5.31
s5 - s77 + 7.204482z5z77z3 <= 5.31
s5 - s53 + 7.218487z5z53z2 <= 5.31
s5 - s32 + 7.291734z5z32z3 <= 5.31
s5 - s12 + 7.316231z5z12z3 <= 5.31
s5 - s55 + 7.340384z5z55z3 <= 5.31
s5 - s50 + 7.193720z5z50z3 <= 5.31
s5 - s156 + 7.379036z5z156z2 <= 5.31
s5 - s130 + 7.267607z5z130z3 <= 5.31
s5 - s90 + 7.335901z5z90z3 <= 5.31
s85 - s16 + 6.382588z85z16z3 <= 5.20
s85 - s108 + 6.400946z85z108z1 <= 5.20
s85 - s108 + 6.400946z85z108z3 <= 5.20
s85 - s124 + 6.496506z85z124z1 <= 5.20
s85 - s125 + 6.447830z85z125z3 <= 5.20
s85 - s137 + 6.485474z85z137z3 <= 5.20
s85 - s167 + 6.484085z85z167z3 <= 5.20
s85 - s64 + 6.456962z85z64z1 <= 5.20
s85 - s64 + 6.456962z85z64z3 <= 5.20
s85 - s43 + 6.510847z85z43z1 <= 5.20
s85 - s10 + 6.591563z85z10z3 <= 5.20
s85 - s77 + 6.663781z85z77z3 <= 5.20
s85 - s118 + 6.693084z85z118z1 <= 5.20
s85 - s48 + 6.681025z85z48z1 <= 5.20
s85 - s32 + 6.723585z85z32z3 <= 5.20
s85 - s12 + 6.757233z85z12z3 <= 5.20
s85 - s55 + 6.792602z85z55z1 <= 5.20
s85 - s55 + 6.792602z85z55z3 <= 5.20
s85 - s50 + 6.753732z85z50z1 <= 5.20
s85 - s50 + 6.753732z85z50z3 <= 5.20
s85 - s156 + 6.855831z85z156z1 <= 5.20
s85 - s130 + 6.799389z85z130z1 <= 5.20
s85 - s130 + 6.799389z85z130z3 <= 5.20
s85 - s90 + 6.764170z85z90z3 <= 5.20
s142 - s16 + 6.262107z142z16z3 <= 4.95
s142 - s108 + 6.362655z142z108z1 <= 4.95
s142 - s108 + 6.362655z142z108z3 <= 4.95
s142 - s124 + 6.303731z142z124z1 <= 4.95
s142 - s125 + 6.265881z142z125z3 <= 4.95
s142 - s137 + 6.233256z142z137z3 <= 4.95
s142 - s167 + 6.301703z142z167z3 <= 4.95
s142 - s64 + 6.188647z142z64z1 <= 4.95
s142 - s64 + 6.188647z142z64z3 <= 4.95
s142 - s43 + 6.190889z142z43z1 <= 4.95
s142 - s10 + 6.440900z142z10z3 <= 4.95
s142 - s77 + 6.351910z142z77z3 <= 4.95
s142 - s118 + 6.486783z142z118z1 <= 4.95
s142 - s48 + 6.515115z142z48z1 <= 4.95
s142 - s32 + 6.337253z142z32z3 <= 4.95
s142 - s12 + 6.379929z142z12z3 <= 4.95
s142 - s55 + 6.426697z142z55z1 <= 4.95
s142 - s55 + 6.426697z142z55z3 <= 4.95
s142 - s50 + 6.542353z142z50z1 <= 4.95
s142 - s50 + 6.542353z142z50z3 <= 4.95
s142 - s156 + 6.514483z142z156z1 <= 4.95
s142 - s130 + 6.543593z142z130z1 <= 4.95
s142 - s130 + 6.543593z142z130z3 <= 4.95
s142 - s90 + 6.358959z142z90z3 <= 4.95
s76 - s16 + 6.546412z76z16z3 <= 5.44
s76 - s124 + 6.636250z76z124z2 <= 5.44
s76 - s125 + 6.584652z76z125z3 <= 5.44
s76 - s137 + 6.597980z76z137z2 <= 5.44
s76 - s137 + 6.597980z76z137z3 <= 5.44
s76 - s167 + 6.627308z76z167z2 <= 5.44
s76 - s167 + 6.627308z76z167z3 <= 5.44
s76 - s64 + 6.559345z76z64z3 <= 5.44
s76 - s10 + 6.763056z76z10z2 <= 5.44
s76 - s10 + 6.763056z76z10z3 <= 5.44
s76 - s77 + 6.776117z76z77z3 <= 5.44
s76 - s53 + 6.857110z76z53z2 <= 5.44
s76 - s32 + 6.823852z76z32z3 <= 5.44
s76 - s12 + 6.859677z76z12z3 <= 5.44
s76 - s55 + 6.897914z76z55z3 <= 5.44
s76 - s50 + 6.904893z76z50z3 <= 5.44
s76 - s156 + 6.967893z76z156z2 <= 5.44
s76 - s130 + 6.935032z76z130z3 <= 5.44
s76 - s90 + 6.862970z76z90z3 <= 5.44
s125 - s125 + 6.760000z125z125z3 <= 5.76
s125 - s137 + 6.821464z125z137z3 <= 5.76
s125 - s167 + 6.802688z125z167z3 <= 5.76
s125 - s64 + 6.842463z125z64z3 <= 5.76
s125 - s10 + 6.942087z125z10z3 <= 5.76
s125 - s77 + 6.980101z125z77z3 <= 5.76
s125 - s32 + 7.057621z125z32z3 <= 5.76
s125 - s12 + 7.084414z125z12z3 <= 5.76
s125 - s55 + 7.113899z125z55z3 <= 5.76
s125 - s50 + 7.080694z125z50z3 <= 5.76
s125 - s130 + 7.115591z125z130z3 <= 5.76
s125 - s90 + 7.101630z125z90z3 <= 5.76
s150 - s137 + 6.948465z150z137z2 <= 5.79
s150 - s10 + 7.144902z150z10z2 <= 5.79
s150 - s53 + 7.129934z150z53z2 <= 5.79
s150 - s156 + 7.174188z150z156z2 <= 5.79
s124 - s43 + 7.092492z124z43z1 <= 5.96
s124 - s10 + 7.098950z124z10z2 <= 5.96
s124 - s53 + 7.191779z124z53z2 <= 5.96
s124 - s118 + 7.168931z124z118z1 <= 5.96
s124 - s48 + 7.179177z124z48z1 <= 5.96
s124 - s55 + 7.279353z124z55z1 <= 5.96
s124 - s50 + 7.230255z124z50z1 <= 5.96
s124 - s156 + 7.328725z124z156z1 <= 5.96
s124 - s156 + 7.328725z124z156z2 <= 5.96
s124 - s130 + 7.265852z124z130z1 <= 5.96
s22 - s124 + 6.415368z22z124z1 <= 4.66
s22 - s64 + 6.300283z22z64z1 <= 4.66
s22 - s43 + 6.298901z22z43z1 <= 4.66
s22 - s118 + 6.593076z22z118z1 <= 4.66
s22 - s48 + 6.625417z22z48z1 <= 4.66
s22 - s55 + 6.481646z22z55z1 <= 4.66
s22 - s50 + 6.645739z22z50z1 <= 4.66
s22 - s156 + 6.572192z22z156z1 <= 4.66
s22 - s130 + 6.635687z22z130z1 <= 4.66
s16 - s10 + 7.772810z16z10z3 <= 6.55
s16 - s77 + 7.836977z16z77z3 <= 6.55
s16 - s32 + 7.910863z16z32z3 <= 6.55
s16 - s12 + 7.939473z16z12z3 <= 6.55
s16 - s55 + 7.970212z16z55z3 <= 6.55
s16 - s50 + 7.926003z16z50z3 <= 6.55
s16 - s130 + 7.967400z16z130z3 <= 6.55
s16 - s90 + 7.954255z16z90z3 <= 6.55
s108 - s43 + 7.679316z108z43z1 <= 6.42
s108 - s10 + 7.623087z108z10z3 <= 6.42
s108 - s77 + 7.762799z108z77z3 <= 6.42
s108 - s118 + 7.734183z108z118z1 <= 6.42
s108 - s48 + 7.709444z108z48z1 <= 6.42
s108 - s32 + 7.853333z108z32z3 <= 6.42
s108 - s12 + 7.875388z108z12z3 <= 6.42
s108 - s55 + 7.898702z108z55z1 <= 6.42
s108 - s55 + 7.898702z108z55z3 <= 6.42
s108 - s50 + 7.791424z108z50z1 <= 6.42
s108 - s50 + 7.791424z108z50z3 <= 6.42
s108 - s156 + 7.941068z108z156z1 <= 6.42
s108 - s130 + 7.850245z108z130z1 <= 6.42
s108 - s130 + 7.850245z108z130z3 <= 6.42
s108 - s90 + 7.897959z108z90z3 <= 6.42
s124 - s43 + 8.000979z124z43z1 <= 6.87
s124 - s10 + 8.007437z124z10z2 <= 6.87
s124 - s53 + 8.100266z124z53z2 <= 6.87
s124 - s118 + 8.077417z124z118z1 <= 6.87
s124 - s48 + 8.087665z124z48z1 <= 6.87
s124 - s55 + 8.187840z124z55z1 <= 6.87
s124 - s50 + 8.138741z124z50z1 <= 6.87
s124 - s156 + 8.237211z124z156z1 <= 6.87
s124 - s156 + 8.237211z124z156z2 <= 6.87
s124 - s130 + 8.174339z124z130z1 <= 6.87
s125 - s10 + 7.942087z125z10z3 <= 6.76
s125 - s77 + 7.980101z125z77z3 <= 6.76
s125 - s32 + 8.057620z125z32z3 <= 6.76
s125 - s12 + 8.084414z125z12z3 <= 6.76
s125 - s55 + 8.113899z125z55z3 <= 6.76
s125 - s50 + 8.080694z125z50z3 <= 6.76
s125 - s130 + 8.115591z125z130z3 <= 6.76
s125 - s90 + 8.101630z125z90z3 <= 6.76
s137 - s10 + 8.198380z137z10z2 <= 6.99
s137 - s10 + 8.198380z137z10z3 <= 6.99
s137 - s77 + 8.169505z137z77z3 <= 6.99
s137 - s53 + 8.251364z137z53z2 <= 6.99
s137 - s32 + 8.233311z137z32z3 <= 6.99
s137 - s12 + 8.263659z137z12z3 <= 6.99
s137 - s55 + 8.297318z137z55z3 <= 6.99
s137 - s50 + 8.310069z137z50z3 <= 6.99
s137 - s156 + 8.361902z137z156z2 <= 6.99
s137 - s130 + 8.330587z137z130z3 <= 6.99
s137 - s90 + 8.276356z137z90z3 <= 6.99
s166 - s10 + 7.440317z166z10z2 <= 6.16
s166 - s10 + 7.440317z166z10z3 <= 6.16
s166 - s77 + 7.561995z166z77z3 <= 6.16
s166 - s53 + 7.599494z166z53z2 <= 6.16
s166 - s32 + 7.643552z166z32z3 <= 6.16
s166 - s12 + 7.669902z166z12z3 <= 6.16
s166 - s55 + 7.697484z166z55z3 <= 6.16
s166 - s50 + 7.608206z166z50z3 <= 6.16
s166 - s156 + 7.746704z166z156z2 <= 6.16
s166 - s130 + 7.664601z166z130z3 <= 6.16
s166 - s90 + 7.687468z166z90z3 <= 6.16
s167 - s10 + 7.971264z167z10z2 <= 6.83
s167 - s10 + 7.971264z167z10z3 <= 6.83
s167 - s77 + 8.025164z167z77z3 <= 6.83
s167 - s53 + 8.072670z167z53z2 <= 6.83
s167 - s32 + 8.113627z167z32z3 <= 6.83
s167 - s12 + 8.135868z167z12z3 <= 6.83
s167 - s55 + 8.160992z167z55z3 <= 6.83
s167 - s50 + 8.108488z167z50z3 <= 6.83
s167 - s156 + 8.210526z167z156z2 <= 6.83
s167 - s130 + 8.146088z167z130z3 <= 6.83
s167 - s90 + 8.158295z167z90z3 <= 6.83
s64 - s43 + 8.084975z64z43z1 <= 7.03
s64 - s10 + 8.282367z64z10z3 <= 7.03
s64 - s77 + 8.247971z64z77z3 <= 7.03
s64 - s118 + 8.338833z64z118z1 <= 7.03
s64 - s48 + 8.359309z64z48z1 <= 7.03
s64 - s32 + 8.296667z64z32z3 <= 7.03
s64 - s12 + 8.331183z64z12z3 <= 7.03
s64 - s55 + 8.368690z64z55z1 <= 7.03
s64 - s55 + 8.368690z64z55z3 <= 7.03
s64 - s50 + 8.398119z64z50z1 <= 7.03
s64 - s50 + 8.398119z64z50z3 <= 7.03
s64 - s156 + 8.439010z64z156z1 <= 7.03
s64 - s130 + 8.417011z64z130z1 <= 7.03
s64 - s130 + 8.417011z64z130z3 <= 7.03
s64 - s90 + 8.337318z64z90z3 <= 7.03
s43 - s118 + 8.555898z43z118z1 <= 7.26
s43 - s48 + 8.586871z43z48z1 <= 7.26
s43 - s55 + 8.549444z43z55z1 <= 7.26
s43 - s50 + 8.611821z43z50z1 <= 7.26
s43 - s156 + 8.624173z43z156z1 <= 7.26
s43 - s130 + 8.619383z43z130z1 <= 7.26
s10 - s53 + 8.475951z10z53z2 <= 7.29
s10 - s32 + 8.616122z10z32z3 <= 7.29
s10 - s12 + 8.620522z10z12z3 <= 7.29
s10 - s55 + 8.626518z10z55z3 <= 7.29
s10 - s50 + 8.458654z10z50z3 <= 7.29
s10 - s156 + 8.642073z10z156z2 <= 7.29
s10 - s130 + 8.523714z10z130z3 <= 7.29
s10 - s90 + 8.657816z10z90z3 <= 7.29
s77 - s32 + 8.579341z77z32z3 <= 7.47
s77 - s12 + 8.586618z77z12z3 <= 7.47
s77 - s55 + 8.605973z77z55z3 <= 7.47
s77 - s50 + 8.683749z77z50z3 <= 7.47
s77 - s130 + 8.663793z77z130z3 <= 7.47
s77 - s90 + 8.620850z77z90z3 <= 7.47
s53 - s156 + 8.857199z53z156z2 <= 7.69
s118 - s48 + 8.775997z118z48z1 <= 7.71
s118 - s50 + 8.771463z118z50z1 <= 7.71
s118 - s156 + 8.963860z118z156z1 <= 7.71
s118 - s130 + 8.830000z118z130z1 <= 7.71
s48 - s50 + 8.923571z48z50z1 <= 7.83
s48 - s130 + 9.003077z48z130z1 <= 7.83
s32 - s90 + 8.924722z32z90z3 <= 7.88
s12 - s90 + 8.947141z12z90z3 <= 7.90
s55 - s156 + 9.030677z55z156z1 <= 7.94
s55 - s90 + 9.024327z55z90z3 <= 7.94

x88x124x1 - 1z88z124z1 <= 0
x88x124x2 - 1z88z124z2 <= 0
x88x137x2 - 1z88z137z2 <= 0
x88x167x2 - 1z88z167z2 <= 0
x88x64x1 - 1z88z64z1 <= 0
x88x43x1 - 2z88z43z1 <= 0
x88x10x2 - 1z88z10z2 <= 0
x88x53x2 - 2z88z53z2 <= 0
x88x118x1 - 2z88z118z1 <= 0
x88x48x1 - 2z88z48z1 <= 0
x88x55x1 - 1z88z55z1 <= 0
x88x50x1 - 1z88z50z1 <= 0
x88x156x1 - 1z88z156z1 <= 0
x88x156x2 - 1z88z156z2 <= 0
x88x130x1 - 1z88z130z1 <= 0
x5x10x2 - 1z5z10z2 <= 0
x5x10x3 - 1z5z10z3 <= 0
x5x77x3 - 2z5z77z3 <= 0
x5x53x2 - 2z5z53z2 <= 0
x5x32x3 - 2z5z32z3 <= 0
x5x12x3 - 2z5z12z3 <= 0
x5x55x3 - 1z5z55z3 <= 0
x5x50x3 - 1z5z50z3 <= 0
x5x156x2 - 1z5z156z2 <= 0
x5x130x3 - 1z5z130z3 <= 0
x5x90x3 - 2z5z90z3 <= 0
x85x16x3 - 2z85z16z3 <= 0
x85x108x1 - 1z85z108z1 <= 0
x85x108x3 - 1z85z108z3 <= 0
x85x124x1 - 1z85z124z1 <= 0
x85x125x3 - 2z85z125z3 <= 0
x85x137x3 - 1z85z137z3 <= 0
x85x167x3 - 1z85z167z3 <= 0
x85x64x1 - 1z85z64z1 <= 0
x85x64x3 - 1z85z64z3 <= 0
x85x43x1 - 2z85z43z1 <= 0
x85x10x3 - 1z85z10z3 <= 0
x85x77x3 - 2z85z77z3 <= 0
x85x118x1 - 2z85z118z1 <= 0
x85x48x1 - 2z85z48z1 <= 0
x85x32x3 - 2z85z32z3 <= 0
x85x12x3 - 2z85z12z3 <= 0
x85x55x1 - 1z85z55z1 <= 0
x85x55x3 - 1z85z55z3 <= 0
x85x50x1 - 1z85z50z1 <= 0
x85x50x3 - 1z85z50z3 <= 0
x85x156x1 - 1z85z156z1 <= 0
x85x130x1 - 1z85z130z1 <= 0
x85x130x3 - 1z85z130z3 <= 0
x85x90x3 - 2z85z90z3 <= 0
x142x16x3 - 2z142z16z3 <= 0
x142x108x1 - 1z142z108z1 <= 0
x142x108x3 - 1z142z108z3 <= 0
x142x124x1 - 1z142z124z1 <= 0
x142x125x3 - 2z142z125z3 <= 0
x142x137x3 - 1z142z137z3 <= 0
x142x167x3 - 1z142z167z3 <= 0
x142x64x1 - 1z142z64z1 <= 0
x142x64x3 - 1z142z64z3 <= 0
x142x43x1 - 2z142z43z1 <= 0
x142x10x3 - 1z142z10z3 <= 0
x142x77x3 - 2z142z77z3 <= 0
x142x118x1 - 2z142z118z1 <= 0
x142x48x1 - 2z142z48z1 <= 0
x142x32x3 - 2z142z32z3 <= 0
x142x12x3 - 2z142z12z3 <= 0
x142x55x1 - 1z142z55z1 <= 0
x142x55x3 - 1z142z55z3 <= 0
x142x50x1 - 1z142z50z1 <= 0
x142x50x3 - 1z142z50z3 <= 0
x142x156x1 - 1z142z156z1 <= 0
x142x130x1 - 1z142z130z1 <= 0
x142x130x3 - 1z142z130z3 <= 0
x142x90x3 - 2z142z90z3 <= 0
x76x16x3 - 2z76z16z3 <= 0
x76x124x2 - 1z76z124z2 <= 0
x76x125x3 - 2z76z125z3 <= 0
x76x137x2 - 1z76z137z2 <= 0
x76x137x3 - 1z76z137z3 <= 0
x76x167x2 - 1z76z167z2 <= 0
x76x167x3 - 1z76z167z3 <= 0
x76x64x3 - 1z76z64z3 <= 0
x76x10x2 - 1z76z10z2 <= 0
x76x10x3 - 1z76z10z3 <= 0
x76x77x3 - 2z76z77z3 <= 0
x76x53x2 - 2z76z53z2 <= 0
x76x32x3 - 2z76z32z3 <= 0
x76x12x3 - 2z76z12z3 <= 0
x76x55x3 - 1z76z55z3 <= 0
x76x50x3 - 1z76z50z3 <= 0
x76x156x2 - 1z76z156z2 <= 0
x76x130x3 - 1z76z130z3 <= 0
x76x90x3 - 2z76z90z3 <= 0
x125x125x3 - 2z125z125z3 <= 0
x125x137x3 - 1z125z137z3 <= 0
x125x167x3 - 1z125z167z3 <= 0
x125x64x3 - 1z125z64z3 <= 0
x125x10x3 - 1z125z10z3 <= 0
x125x77x3 - 2z125z77z3 <= 0
x125x32x3 - 2z125z32z3 <= 0
x125x12x3 - 2z125z12z3 <= 0
x125x55x3 - 1z125z55z3 <= 0
x125x50x3 - 1z125z50z3 <= 0
x125x130x3 - 1z125z130z3 <= 0
x125x90x3 - 2z125z90z3 <= 0
x150x137x2 - 1z150z137z2 <= 0
x150x10x2 - 1z150z10z2 <= 0
x150x53x2 - 2z150z53z2 <= 0
x150x156x2 - 1z150z156z2 <= 0
x124x43x1 - 2z124z43z1 <= 0
x124x10x2 - 1z124z10z2 <= 0
x124x53x2 - 2z124z53z2 <= 0
x124x118x1 - 2z124z118z1 <= 0
x124x48x1 - 2z124z48z1 <= 0
x124x55x1 - 1z124z55z1 <= 0
x124x50x1 - 1z124z50z1 <= 0
x124x156x1 - 1z124z156z1 <= 0
x124x156x2 - 1z124z156z2 <= 0
x124x130x1 - 1z124z130z1 <= 0
x22x124x1 - 1z22z124z1 <= 0
x22x64x1 - 1z22z64z1 <= 0
x22x43x1 - 2z22z43z1 <= 0
x22x118x1 - 2z22z118z1 <= 0
x22x48x1 - 2z22z48z1 <= 0
x22x55x1 - 1z22z55z1 <= 0
x22x50x1 - 1z22z50z1 <= 0
x22x156x1 - 1z22z156z1 <= 0
x22x130x1 - 1z22z130z1 <= 0
x16x10x3 - 1z16z10z3 <= 0
x16x77x3 - 2z16z77z3 <= 0
x16x32x3 - 2z16z32z3 <= 0
x16x12x3 - 2z16z12z3 <= 0
x16x55x3 - 1z16z55z3 <= 0
x16x50x3 - 1z16z50z3 <= 0
x16x130x3 - 1z16z130z3 <= 0
x16x90x3 - 2z16z90z3 <= 0
x16x0x3 <= 2
x108x43x1 - 2z108z43z1 <= 0
x108x10x3 - 1z108z10z3 <= 0
x108x77x3 - 2z108z77z3 <= 0
x108x118x1 - 2z108z118z1 <= 0
x108x48x1 - 2z108z48z1 <= 0
x108x32x3 - 2z108z32z3 <= 0
x108x12x3 - 2z108z12z3 <= 0
x108x55x1 - 1z108z55z1 <= 0
x108x55x3 - 1z108z55z3 <= 0
x108x50x1 - 1z108z50z1 <= 0
x108x50x3 - 1z108z50z3 <= 0
x108x156x1 - 1z108z156z1 <= 0
x108x130x1 - 1z108z130z1 <= 0
x108x130x3 - 1z108z130z3 <= 0
x108x90x3 - 2z108z90z3 <= 0
x108x0x1 <= 1
x108x0x3 <= 1
x124x43x1 - 2z124z43z1 <= 0
x124x10x2 - 1z124z10z2 <= 0
x124x53x2 - 2z124z53z2 <= 0
x124x118x1 - 2z124z118z1 <= 0
x124x48x1 - 2z124z48z1 <= 0
x124x55x1 - 1z124z55z1 <= 0
x124x50x1 - 1z124z50z1 <= 0
x124x156x1 - 1z124z156z1 <= 0
x124x156x2 - 1z124z156z2 <= 0
x124x130x1 - 1z124z130z1 <= 0
x124x0x1 <= 1
x124x0x2 <= 1
x125x10x3 - 1z125z10z3 <= 0
x125x77x3 - 2z125z77z3 <= 0
x125x32x3 - 2z125z32z3 <= 0
x125x12x3 - 2z125z12z3 <= 0
x125x55x3 - 1z125z55z3 <= 0
x125x50x3 - 1z125z50z3 <= 0
x125x130x3 - 1z125z130z3 <= 0
x125x90x3 - 2z125z90z3 <= 0
x125x0x3 <= 2
x137x10x2 - 1z137z10z2 <= 0
x137x10x3 - 1z137z10z3 <= 0
x137x77x3 - 2z137z77z3 <= 0
x137x53x2 - 2z137z53z2 <= 0
x137x32x3 - 2z137z32z3 <= 0
x137x12x3 - 2z137z12z3 <= 0
x137x55x3 - 1z137z55z3 <= 0
x137x50x3 - 1z137z50z3 <= 0
x137x156x2 - 1z137z156z2 <= 0
x137x130x3 - 1z137z130z3 <= 0
x137x90x3 - 2z137z90z3 <= 0
x137x0x2 <= 1
x137x0x3 <= 1
x166x10x2 - 1z166z10z2 <= 0
x166x10x3 - 1z166z10z3 <= 0
x166x77x3 - 2z166z77z3 <= 0
x166x53x2 - 2z166z53z2 <= 0
x166x32x3 - 2z166z32z3 <= 0
x166x12x3 - 2z166z12z3 <= 0
x166x55x3 - 1z166z55z3 <= 0
x166x50x3 - 1z166z50z3 <= 0
x166x156x2 - 1z166z156z2 <= 0
x166x130x3 - 1z166z130z3 <= 0
x166x90x3 - 2z166z90z3 <= 0
x166x0x2 <= 1
x166x0x3 <= 1
x167x10x2 - 1z167z10z2 <= 0
x167x10x3 - 1z167z10z3 <= 0
x167x77x3 - 2z167z77z3 <= 0
x167x53x2 - 2z167z53z2 <= 0
x167x32x3 - 2z167z32z3 <= 0
x167x12x3 - 2z167z12z3 <= 0
x167x55x3 - 1z167z55z3 <= 0
x167x50x3 - 1z167z50z3 <= 0
x167x156x2 - 1z167z156z2 <= 0
x167x130x3 - 1z167z130z3 <= 0
x167x90x3 - 2z167z90z3 <= 0
x167x0x2 <= 1
x167x0x3 <= 1
x64x43x1 - 2z64z43z1 <= 0
x64x10x3 - 1z64z10z3 <= 0
x64x77x3 - 2z64z77z3 <= 0
x64x118x1 - 2z64z118z1 <= 0
x64x48x1 - 2z64z48z1 <= 0
x64x32x3 - 2z64z32z3 <= 0
x64x12x3 - 2z64z12z3 <= 0
x64x55x1 - 1z64z55z1 <= 0
x64x55x3 - 1z64z55z3 <= 0
x64x50x1 - 1z64z50z1 <= 0
x64x50x3 - 1z64z50z3 <= 0
x64x156x1 - 1z64z156z1 <= 0
x64x130x1 - 1z64z130z1 <= 0
x64x130x3 - 1z64z130z3 <= 0
x64x90x3 - 2z64z90z3 <= 0
x64x0x1 <= 1
x64x0x3 <= 1
x43x118x1 - 2z43z118z1 <= 0
x43x48x1 - 2z43z48z1 <= 0
x43x55x1 - 1z43z55z1 <= 0
x43x50x1 - 1z43z50z1 <= 0
x43x156x1 - 1z43z156z1 <= 0
x43x130x1 - 1z43z130z1 <= 0
x43x0x1 <= 2
x10x53x2 - 2z10z53z2 <= 0
x10x32x3 - 2z10z32z3 <= 0
x10x12x3 - 2z10z12z3 <= 0
x10x55x3 - 1z10z55z3 <= 0
x10x50x3 - 1z10z50z3 <= 0
x10x156x2 - 1z10z156z2 <= 0
x10x130x3 - 1z10z130z3 <= 0
x10x90x3 - 2z10z90z3 <= 0
x10x0x2 <= 1
x10x0x3 <= 1
x77x32x3 - 2z77z32z3 <= 0
x77x12x3 - 2z77z12z3 <= 0
x77x55x3 - 1z77z55z3 <= 0
x77x50x3 - 1z77z50z3 <= 0
x77x130x3 - 1z77z130z3 <= 0
x77x90x3 - 2z77z90z3 <= 0
x77x0x3 <= 2
x53x156x2 - 1z53z156z2 <= 0
x53x0x2 <= 2
x118x48x1 - 2z118z48z1 <= 0
x118x50x1 - 1z118z50z1 <= 0
x118x156x1 - 1z118z156z1 <= 0
x118x130x1 - 1z118z130z1 <= 0
x118x0x1 <= 2
x48x50x1 - 1z48z50z1 <= 0
x48x130x1 - 1z48z130z1 <= 0
x48x0x1 <= 2
x32x90x3 - 2z32z90z3 <= 0
x32x0x3 <= 2
x12x90x3 - 2z12z90z3 <= 0
x12x0x3 <= 2
x55x156x1 - 1z55z156z1 <= 0
x55x90x3 - 2z55z90z3 <= 0
x55x0x1 <= 1
x55x0x3 <= 1
x50x0x1 <= 1
x50x0x3 <= 1
x156x0x1 <= 1
x156x0x2 <= 1
x130x0x1 <= 1
x130x0x3 <= 1
x90x0x3 <= 2

Bounds
s88 = 5.163700
s5 = 5.307029
s85 = 5.196876
s142 = 4.951910
s76 = 5.442917
s125 = 5.760000
s150 = 5.790000
s124 = 5.961513
s22 = 4.656890
6.000000 <= s16 <= 6.550000
6.000000 <= s108 <= 6.420000
6.000000 <= s124 <= 6.870000
6.000000 <= s125 <= 6.760000
6.000000 <= s137 <= 6.990000
6.000000 <= s166 <= 6.160000
6.000000 <= s167 <= 6.830000
6.030000 <= s64 <= 7.030000
6.260000 <= s43 <= 7.260000
6.290000 <= s10 <= 7.290000
6.470000 <= s77 <= 7.470000
6.690000 <= s53 <= 7.690000
6.710000 <= s118 <= 7.710000
6.830000 <= s48 <= 7.830000
6.880000 <= s32 <= 7.880000
6.900000 <= s12 <= 7.900000
6.940000 <= s55 <= 7.940000
7.070000 <= s50 <= 8.070000
7.070000 <= s156 <= 8.070000
7.080000 <= s130 <= 8.080000
7.090000 <= s90 <= 8.090000

General
x88x124x1 x88x124x2 x88x137x2 x88x167x2 x88x64x1 x88x43x1 x88x10x2 x88x53x2 x88x118x1 x88x48x1 x88x55x1 x88x50x1 x88x156x1 x88x156x2 x88x130x1 
x5x10x2 x5x10x3 x5x77x3 x5x53x2 x5x32x3 x5x12x3 x5x55x3 x5x50x3 x5x156x2 x5x130x3 x5x90x3 
x85x16x3 x85x108x1 x85x108x3 x85x124x1 x85x125x3 x85x137x3 x85x167x3 x85x64x1 x85x64x3 x85x43x1 x85x10x3 x85x77x3 x85x118x1 x85x48x1 x85x32x3 x85x12x3 x85x55x1 x85x55x3 x85x50x1 x85x50x3 x85x156x1 x85x130x1 x85x130x3 x85x90x3 
x142x16x3 x142x108x1 x142x108x3 x142x124x1 x142x125x3 x142x137x3 x142x167x3 x142x64x1 x142x64x3 x142x43x1 x142x10x3 x142x77x3 x142x118x1 x142x48x1 x142x32x3 x142x12x3 x142x55x1 x142x55x3 x142x50x1 x142x50x3 x142x156x1 x142x130x1 x142x130x3 x142x90x3 
x76x16x3 x76x124x2 x76x125x3 x76x137x2 x76x137x3 x76x167x2 x76x167x3 x76x64x3 x76x10x2 x76x10x3 x76x77x3 x76x53x2 x76x32x3 x76x12x3 x76x55x3 x76x50x3 x76x156x2 x76x130x3 x76x90x3 
x125x125x3 x125x137x3 x125x167x3 x125x64x3 x125x10x3 x125x77x3 x125x32x3 x125x12x3 x125x55x3 x125x50x3 x125x130x3 x125x90x3 
x150x137x2 x150x10x2 x150x53x2 x150x156x2 
x124x43x1 x124x10x2 x124x53x2 x124x118x1 x124x48x1 x124x55x1 x124x50x1 x124x156x1 x124x156x2 x124x130x1 
x22x124x1 x22x64x1 x22x43x1 x22x118x1 x22x48x1 x22x55x1 x22x50x1 x22x156x1 x22x130x1 
x16x10x3 x16x77x3 x16x32x3 x16x12x3 x16x55x3 x16x50x3 x16x130x3 x16x90x3 x16x0x3 
x108x43x1 x108x10x3 x108x77x3 x108x118x1 x108x48x1 x108x32x3 x108x12x3 x108x55x1 x108x55x3 x108x50x1 x108x50x3 x108x156x1 x108x130x1 x108x130x3 x108x90x3 x108x0x1 x108x0x3 
x124x43x1 x124x10x2 x124x53x2 x124x118x1 x124x48x1 x124x55x1 x124x50x1 x124x156x1 x124x156x2 x124x130x1 x124x0x1 x124x0x2 
x125x10x3 x125x77x3 x125x32x3 x125x12x3 x125x55x3 x125x50x3 x125x130x3 x125x90x3 x125x0x3 
x137x10x2 x137x10x3 x137x77x3 x137x53x2 x137x32x3 x137x12x3 x137x55x3 x137x50x3 x137x156x2 x137x130x3 x137x90x3 x137x0x2 x137x0x3 
x166x10x2 x166x10x3 x166x77x3 x166x53x2 x166x32x3 x166x12x3 x166x55x3 x166x50x3 x166x156x2 x166x130x3 x166x90x3 x166x0x2 x166x0x3 
x167x10x2 x167x10x3 x167x77x3 x167x53x2 x167x32x3 x167x12x3 x167x55x3 x167x50x3 x167x156x2 x167x130x3 x167x90x3 x167x0x2 x167x0x3 
x64x43x1 x64x10x3 x64x77x3 x64x118x1 x64x48x1 x64x32x3 x64x12x3 x64x55x1 x64x55x3 x64x50x1 x64x50x3 x64x156x1 x64x130x1 x64x130x3 x64x90x3 x64x0x1 x64x0x3 
x43x118x1 x43x48x1 x43x55x1 x43x50x1 x43x156x1 x43x130x1 x43x0x1 
x10x53x2 x10x32x3 x10x12x3 x10x55x3 x10x50x3 x10x156x2 x10x130x3 x10x90x3 x10x0x2 x10x0x3 
x77x32x3 x77x12x3 x77x55x3 x77x50x3 x77x130x3 x77x90x3 x77x0x3 
x53x156x2 x53x0x2 
x118x48x1 x118x50x1 x118x156x1 x118x130x1 x118x0x1 
x48x50x1 x48x130x1 x48x0x1 
x32x90x3 x32x0x3 
x12x90x3 x12x0x3 
x55x156x1 x55x90x3 x55x0x1 x55x0x3 
x50x0x1 x50x0x3 
x156x0x1 x156x0x2 
x130x0x1 x130x0x3 
x90x0x3 

Binaries
y16 y108 y124 y125 y137 y166 y167 y64 y43 y10 y77 y53 y118 y48 y32 y12 y55 y50 y156 y130 y90 
z88z124z1 z88z124z2 z88z137z2 z88z167z2 z88z64z1 z88z43z1 z88z10z2 z88z53z2 z88z118z1 z88z48z1 z88z55z1 z88z50z1 z88z156z1 z88z156z2 z88z130z1 
z5z10z2 z5z10z3 z5z77z3 z5z53z2 z5z32z3 z5z12z3 z5z55z3 z5z50z3 z5z156z2 z5z130z3 z5z90z3 
z85z16z3 z85z108z1 z85z108z3 z85z124z1 z85z125z3 z85z137z3 z85z167z3 z85z64z1 z85z64z3 z85z43z1 z85z10z3 z85z77z3 z85z118z1 z85z48z1 z85z32z3 z85z12z3 z85z55z1 z85z55z3 z85z50z1 z85z50z3 z85z156z1 z85z130z1 z85z130z3 z85z90z3 
z142z16z3 z142z108z1 z142z108z3 z142z124z1 z142z125z3 z142z137z3 z142z167z3 z142z64z1 z142z64z3 z142z43z1 z142z10z3 z142z77z3 z142z118z1 z142z48z1 z142z32z3 z142z12z3 z142z55z1 z142z55z3 z142z50z1 z142z50z3 z142z156z1 z142z130z1 z142z130z3 z142z90z3 
z76z16z3 z76z124z2 z76z125z3 z76z137z2 z76z137z3 z76z167z2 z76z167z3 z76z64z3 z76z10z2 z76z10z3 z76z77z3 z76z53z2 z76z32z3 z76z12z3 z76z55z3 z76z50z3 z76z156z2 z76z130z3 z76z90z3 
z125z125z3 z125z137z3 z125z167z3 z125z64z3 z125z10z3 z125z77z3 z125z32z3 z125z12z3 z125z55z3 z125z50z3 z125z130z3 z125z90z3 
z150z137z2 z150z10z2 z150z53z2 z150z156z2 
z124z43z1 z124z10z2 z124z53z2 z124z118z1 z124z48z1 z124z55z1 z124z50z1 z124z156z1 z124z156z2 z124z130z1 
z22z124z1 z22z64z1 z22z43z1 z22z118z1 z22z48z1 z22z55z1 z22z50z1 z22z156z1 z22z130z1 
z16z10z3 z16z77z3 z16z32z3 z16z12z3 z16z55z3 z16z50z3 z16z130z3 z16z90z3 
z108z43z1 z108z10z3 z108z77z3 z108z118z1 z108z48z1 z108z32z3 z108z12z3 z108z55z1 z108z55z3 z108z50z1 z108z50z3 z108z156z1 z108z130z1 z108z130z3 z108z90z3 
z124z43z1 z124z10z2 z124z53z2 z124z118z1 z124z48z1 z124z55z1 z124z50z1 z124z156z1 z124z156z2 z124z130z1 
z125z10z3 z125z77z3 z125z32z3 z125z12z3 z125z55z3 z125z50z3 z125z130z3 z125z90z3 
z137z10z2 z137z10z3 z137z77z3 z137z53z2 z137z32z3 z137z12z3 z137z55z3 z137z50z3 z137z156z2 z137z130z3 z137z90z3 
z166z10z2 z166z10z3 z166z77z3 z166z53z2 z166z32z3 z166z12z3 z166z55z3 z166z50z3 z166z156z2 z166z130z3 z166z90z3 
z167z10z2 z167z10z3 z167z77z3 z167z53z2 z167z32z3 z167z12z3 z167z55z3 z167z50z3 z167z156z2 z167z130z3 z167z90z3 
z64z43z1 z64z10z3 z64z77z3 z64z118z1 z64z48z1 z64z32z3 z64z12z3 z64z55z1 z64z55z3 z64z50z1 z64z50z3 z64z156z1 z64z130z1 z64z130z3 z64z90z3 
z43z118z1 z43z48z1 z43z55z1 z43z50z1 z43z156z1 z43z130z1 
z10z53z2 z10z32z3 z10z12z3 z10z55z3 z10z50z3 z10z156z2 z10z130z3 z10z90z3 
z77z32z3 z77z12z3 z77z55z3 z77z50z3 z77z130z3 z77z90z3 
z53z156z2 
z118z48z1 z118z50z1 z118z156z1 z118z130z1 
z48z50z1 z48z130z1 
z32z90z3 
z12z90z3 
z55z156z1 z55z90z3 





End